StringID   Type       x          y          demand     ReadyTime  DueDate    ServiceTime  wp1 wp2 wp3 wp4 wp5 wp6 wp7 wp8 wp9 wp10 wp11 wp12 wp13 wp14 wp15 wp16 wp17
D0         d          35.0       35.0       0.0        0.0        1000.0     0.0          6   7   8   9   10  11  12  13  14  15   16   17   18   19   20   21   22 
S0         f          35.0       35.0       0.0        0.0        1000.0     0.0          0.2 0.4 0.6 1   1   1   1   1   1   1    1    0.6  0.4  0.2  0    0    0 
S1         f          64.0       37.0       0.0        0.0        1000.0     0.0          0.2 0.4 0.6 1   1   1   1   1   1   1    1    0.6  0.4  0.2  0    0    0 
S7         f          20.0       61.0       0.0        0.0        1000.0     0.0          0   0.1 0.2 0.3 0.3 0.2 0.2 0.2 0.2 0.3  0.3  0.2  0.1  0.0  0    0    0 
S9         f          15.0       42.0       0.0        0.0        1000.0     0.0          0   0.1 0.2 0.3 0.3 0.2 0.2 0.2 0.2 0.3  0.3  0.2  0.1  0.0  0    0    0 
C50        c          47.0       47.0       13.0       507.0      599.0      10.0          
C96        c          22.0       27.0       11.0       0.0        974.0      10.0         
C79        c          57.0       48.0       23.0       0.0        964.0      10.0         
C25        c          65.0       20.0       6.0        418.0      532.0      10.0          
C49        c          6.0        68.0       30.0       0.0        946.0      10.0          

F Vehicle fuel tank capacity /9.4/
Q Vehicle load capacity /1000.0/
r fuel consumption rate /0.155/
g inverse refueling rate /0.5/
v average Velocity /1.0/
